NAME          COPTPROB
OBJSENSE
  MIN
ROWS
 N  __OBJ___
 L  C108    
 L  C116    
 L  C177    
 L  C188    
 L  C232    
COLUMNS
    MARKER    'MARKER'                 'INTORG'
    x12       __OBJ___  -1
    x12       C108      1
    x12       C116      1
    x30       __OBJ___  -1
    x30       C177      1
    x30       C188      1
    x61       __OBJ___  -1
    x61       C116      1
    x61       C232      1
    x86       __OBJ___  -1
    x86       C108      1
    x86       C188      1
    x100      __OBJ___  -1
    x100      C177      1
    x100      C232      1
    MARKER    'MARKER'                 'INTEND'
RHS
    RHS       __OBJ___  85
    RHS       C108      1
    RHS       C116      1
    RHS       C177      1
    RHS       C188      1
    RHS       C232      1
BOUNDS
 UP BOUND     x12       1
 UP BOUND     x30       1
 UP BOUND     x61       1
 UP BOUND     x86       1
 UP BOUND     x100      1
ENDATA
